
Gurobi 10.0.1 (linux64, Java) logging started mar 9 mag 2023, 21:33:05

Set parameter Username
Academic license - for non-commercial use only - expires 2024-05-02

Gurobi 10.0.1 (linux64, Java) logging started mar 9 mag 2023, 21:35:35

Set parameter Username
Academic license - for non-commercial use only - expires 2024-05-02

Gurobi 10.0.1 (linux64, Java) logging started mar 9 mag 2023, 21:37:11

Set parameter Username
Academic license - for non-commercial use only - expires 2024-05-02

Gurobi 10.0.1 (linux64, Java) logging started mar 9 mag 2023, 21:37:59

Set parameter Username
Academic license - for non-commercial use only - expires 2024-05-02

Gurobi 10.0.1 (linux64, Java) logging started mar 9 mag 2023, 21:42:55

Set parameter Username
Academic license - for non-commercial use only - expires 2024-05-02

Gurobi 10.0.1 (linux64, Java) logging started mar 9 mag 2023, 21:44:51

Set parameter Username
Academic license - for non-commercial use only - expires 2024-05-02

Gurobi 10.0.1 (linux64, Java) logging started mar 9 mag 2023, 21:46:55

Set parameter Username
Academic license - for non-commercial use only - expires 2024-05-02

Gurobi 10.0.1 (linux64, Java) logging started mar 9 mag 2023, 21:49:26

Set parameter Username
Academic license - for non-commercial use only - expires 2024-05-02

Gurobi 10.0.1 (linux64, Java) logging started mar 9 mag 2023, 21:50:06

Set parameter Username
Academic license - for non-commercial use only - expires 2024-05-02

Gurobi 10.0.1 (linux64, Java) logging started mar 9 mag 2023, 21:52:39

Set parameter Username
Academic license - for non-commercial use only - expires 2024-05-02

Gurobi 10.0.1 (linux64, Java) logging started mar 9 mag 2023, 21:57:32

Set parameter Username
Academic license - for non-commercial use only - expires 2024-05-02

Gurobi 10.0.1 (linux64, Java) logging started mar 9 mag 2023, 22:08:42

Set parameter Username
Academic license - for non-commercial use only - expires 2024-05-02

Gurobi 10.0.1 (linux64, Java) logging started mar 9 mag 2023, 22:10:16

Set parameter Username
Academic license - for non-commercial use only - expires 2024-05-02

Gurobi 10.0.1 (linux64, Java) logging started mar 9 mag 2023, 22:15:18

Set parameter Username
Academic license - for non-commercial use only - expires 2024-05-02

Gurobi 10.0.1 (linux64, Java) logging started mar 9 mag 2023, 22:28:35

Set parameter Username
Academic license - for non-commercial use only - expires 2024-05-02

Gurobi 10.0.1 (linux64, Java) logging started mar 9 mag 2023, 22:29:12

Set parameter Username
Academic license - for non-commercial use only - expires 2024-05-02
Gurobi Optimizer version 10.0.1 build v10.0.1rc0 (linux64)

CPU model: Intel(R) Core(TM) i5-3230M CPU @ 2.60GHz, instruction set [SSE2|AVX]
Thread count: 2 physical cores, 4 logical processors, using up to 4 threads

Optimize a model with 82 rows, 39 columns and 240 nonzeros
Model fingerprint: 0xdd787315
Variable types: 15 continuous, 24 integer (24 binary)
Coefficient statistics:
  Matrix range     [1e+00, 1e+00]
  Objective range  [5e-01, 1e+01]
  Bounds range     [1e+00, 1e+00]
  RHS range        [1e+00, 1e+00]
Found heuristic solution: objective 0.0000000

Explored 0 nodes (0 simplex iterations) in 0.01 seconds (0.00 work units)
Thread count was 1 (of 4 available processors)

Solution count 1: 0 

Optimal solution found (tolerance 1.00e-04)
Best objective 0.000000000000e+00, best bound 0.000000000000e+00, gap 0.0000%

Gurobi 10.0.1 (linux64, Java) logging started mar 9 mag 2023, 22:32:06

Set parameter Username
Academic license - for non-commercial use only - expires 2024-05-02
Gurobi Optimizer version 10.0.1 build v10.0.1rc0 (linux64)

CPU model: Intel(R) Core(TM) i5-3230M CPU @ 2.60GHz, instruction set [SSE2|AVX]
Thread count: 2 physical cores, 4 logical processors, using up to 4 threads

Optimize a model with 82 rows, 39 columns and 240 nonzeros
Model fingerprint: 0xdd787315
Variable types: 15 continuous, 24 integer (24 binary)
Coefficient statistics:
  Matrix range     [1e+00, 1e+00]
  Objective range  [5e-01, 1e+01]
  Bounds range     [1e+00, 1e+00]
  RHS range        [1e+00, 1e+00]
Found heuristic solution: objective 0.0000000

Explored 0 nodes (0 simplex iterations) in 0.01 seconds (0.00 work units)
Thread count was 1 (of 4 available processors)

Solution count 1: 0 

Optimal solution found (tolerance 1.00e-04)
Best objective 0.000000000000e+00, best bound 0.000000000000e+00, gap 0.0000%

Gurobi 10.0.1 (linux64, Java) logging started mar 9 mag 2023, 22:33:44

Set parameter Username
Academic license - for non-commercial use only - expires 2024-05-02
Gurobi Optimizer version 10.0.1 build v10.0.1rc0 (linux64)

CPU model: Intel(R) Core(TM) i5-3230M CPU @ 2.60GHz, instruction set [SSE2|AVX]
Thread count: 2 physical cores, 4 logical processors, using up to 4 threads

Optimize a model with 82 rows, 39 columns and 240 nonzeros
Model fingerprint: 0xdd787315
Variable types: 15 continuous, 24 integer (24 binary)
Coefficient statistics:
  Matrix range     [1e+00, 1e+00]
  Objective range  [5e-01, 1e+01]
  Bounds range     [1e+00, 1e+00]
  RHS range        [1e+00, 1e+00]
Found heuristic solution: objective 0.0000000

Explored 0 nodes (0 simplex iterations) in 0.01 seconds (0.00 work units)
Thread count was 1 (of 4 available processors)

Solution count 1: 0 

Optimal solution found (tolerance 1.00e-04)
Best objective 0.000000000000e+00, best bound 0.000000000000e+00, gap 0.0000%

Gurobi 10.0.1 (linux64, Java) logging started mar 9 mag 2023, 22:35:35

Set parameter Username
Academic license - for non-commercial use only - expires 2024-05-02

Gurobi 10.0.1 (linux64, Java) logging started mar 9 mag 2023, 22:45:41

Set parameter Username
Set parameter MemLimit to value 2
Academic license - for non-commercial use only - expires 2024-05-02
Gurobi Optimizer version 10.0.1 build v10.0.1rc0 (linux64)

CPU model: Intel(R) Core(TM) i5-3230M CPU @ 2.60GHz, instruction set [SSE2|AVX]
Thread count: 2 physical cores, 4 logical processors, using up to 4 threads

Optimize a model with 90239 rows, 8432 columns and 254882 nonzeros
Model fingerprint: 0xc0cf3842
Variable types: 6625 continuous, 1807 integer (1807 binary)
Coefficient statistics:
  Matrix range     [1e+00, 1e+00]
  Objective range  [3e-03, 1e+01]
  Bounds range     [1e+00, 1e+00]
  RHS range        [1e+00, 1e+00]
Presolve removed 82548 rows and 6656 columns (presolve time = 5s) ...
Presolve removed 86354 rows and 7644 columns
Presolve time: 7.19s
Presolved: 3885 rows, 788 columns, 43192 nonzeros
Variable types: 0 continuous, 788 integer (788 binary)
Found heuristic solution: objective 0.0000000

Explored 0 nodes (0 simplex iterations) in 7.34 seconds (2.01 work units)
Thread count was 4 (of 4 available processors)

Solution count 1: 0 

Optimal solution found (tolerance 1.00e-04)
Best objective 0.000000000000e+00, best bound 0.000000000000e+00, gap 0.0000%

Gurobi 10.0.1 (linux64, Java) logging started mar 9 mag 2023, 22:48:53

Set parameter Username
Set parameter MemLimit to value 2
Academic license - for non-commercial use only - expires 2024-05-02
Gurobi Optimizer version 10.0.1 build v10.0.1rc0 (linux64)

CPU model: Intel(R) Core(TM) i5-3230M CPU @ 2.60GHz, instruction set [SSE2|AVX]
Thread count: 2 physical cores, 4 logical processors, using up to 4 threads

Optimize a model with 90239 rows, 8432 columns and 254882 nonzeros
Model fingerprint: 0xc0cf3842
Variable types: 6625 continuous, 1807 integer (1807 binary)
Coefficient statistics:
  Matrix range     [1e+00, 1e+00]
  Objective range  [3e-03, 1e+01]
  Bounds range     [1e+00, 1e+00]
  RHS range        [1e+00, 1e+00]
Presolve removed 86354 rows and 7644 columns
Presolve time: 4.22s
Presolved: 3885 rows, 788 columns, 43192 nonzeros
Variable types: 0 continuous, 788 integer (788 binary)
Found heuristic solution: objective 0.0000000

Explored 0 nodes (0 simplex iterations) in 4.35 seconds (2.01 work units)
Thread count was 4 (of 4 available processors)

Solution count 1: 0 

Optimal solution found (tolerance 1.00e-04)
Best objective 0.000000000000e+00, best bound 0.000000000000e+00, gap 0.0000%

Gurobi 10.0.1 (linux64, Java) logging started mar 9 mag 2023, 22:50:48

Set parameter Username
Set parameter MemLimit to value 2
Academic license - for non-commercial use only - expires 2024-05-02
Gurobi Optimizer version 10.0.1 build v10.0.1rc0 (linux64)

CPU model: Intel(R) Core(TM) i5-3230M CPU @ 2.60GHz, instruction set [SSE2|AVX]
Thread count: 2 physical cores, 4 logical processors, using up to 4 threads

Optimize a model with 90239 rows, 8432 columns and 254882 nonzeros
Model fingerprint: 0xc0cf3842
Variable types: 6625 continuous, 1807 integer (1807 binary)
Coefficient statistics:
  Matrix range     [1e+00, 1e+00]
  Objective range  [3e-03, 1e+01]
  Bounds range     [1e+00, 1e+00]
  RHS range        [1e+00, 1e+00]
Presolve removed 86354 rows and 7644 columns
Presolve time: 4.12s
Presolved: 3885 rows, 788 columns, 43192 nonzeros
Variable types: 0 continuous, 788 integer (788 binary)
Found heuristic solution: objective 0.0000000

Explored 0 nodes (0 simplex iterations) in 4.24 seconds (2.01 work units)
Thread count was 4 (of 4 available processors)

Solution count 1: 0 

Optimal solution found (tolerance 1.00e-04)
Best objective 0.000000000000e+00, best bound 0.000000000000e+00, gap 0.0000%
